\Generated by Cardinal Operations

Maximize
   20.75 x_1 + 16.75 x_2 + 12.75 x_3 + 12 x_4 + 23.65 x_5 + 20.25 x_6 
   + 16.25 x_7 + 12.25 x_8 + 20.75 x_9 + 16.75 x_10 + 12.75 x_11 
   + 20.75 x_12 + 16.75 x_13 + 12.75 x_14 + 20.75 x_15 + 16.75 x_16 
   + 12.75 x_17 + 20.5 x_18 + 16 x_19 + 12 x_20 + 18.5 x_21 + 17.95 x_22 
   + 14.75 x_23 + 20.25 x_24 + 16 x_25 + 12 x_26 + 16.5 x_27 + 13.25 x_28 
   + 10.5 x_29 + 20.5 x_30 + 16 x_31 + 12 x_32 + 20.75 x_33 + 16.5 x_34 
   + 12.5 x_35 + 21 x_36 + 16.75 x_37 + 12.75 x_38 + 20.25 x_39 + 16 x_40 
   + 12 x_41 + 20.25 x_42 + 16 x_43 + 12 x_44 + 20.5 x_45 + 16 x_46 
   + 12 x_47 + 17.5 x_48 + 14.5 x_49 + 11 x_50 + 15.25 x_51 + 12.5 x_52 
   + 9.75 x_53 + 20.75 x_54 + 16.5 x_55 + 12.5 x_56 + 20.75 x_57 
   + 16.5 x_58 + 12.5 x_59 + 20.25 x_60 + 16.25 x_61 + 12.25 x_62 
   + 20.75 x_63 + 16.5 x_64 + 12.5 x_65 + 20.75 x_66 + 16.75 x_67 
   + 12.75 x_68 + 20.75 x_69 + 16.5 x_70 + 12.5 x_71 + 20.75 x_72 
   + 16.5 x_73 + 12.5 x_74 + 20.25 x_75 + 16 x_76 + 12 x_77 + 20.75 x_78 
   + 16.5 x_79 + 12.5 x_80 + 20.75 x_81 + 16.75 x_82 + 12.75 x_83 
   + 20.5 x_84 + 16 x_85 + 12 x_86 + 25.5 x_87 + 35.95 x_88 + 20.25 x_89 
   + 16 x_90 + 12 x_91 
Subject To
 inventory_constraint: x_1 <= 4960
 x_2 <= 4780
 x_3 <= 2420
 x_4 <= 9570
 x_5 <= 2450
 x_6 <= 1380
 x_7 <= 2810
 x_8 <= 500
 x_9 <= 4640
 x_10 <= 4720
 x_11 <= 2500
 x_12 <= 940
 x_13 <= 3520
 x_14 <= 480
 x_15 <= 2000
 x_16 <= 1380
 x_17 <= 1490
 x_18 <= 2370
 x_19 <= 5910
 x_20 <= 4000
 x_21 <= 7050
 x_22 <= 6580
 x_23 <= 2930
 x_24 <= 480
 x_25 <= 1510
 x_26 <= 3000
 x_27 <= 4600
 x_28 <= 2420
 x_29 <= 5100
 x_30 <= 3660
 x_31 <= 2020
 x_32 <= 1510
 x_33 <= 3740
 x_34 <= 4710
 x_35 <= 980
 x_36 <= 950
 x_37 <= 2430
 x_38 <= 1530
 x_39 <= 1850
 x_40 <= 1380
 x_41 <= 1450
 x_42 <= 4340
 x_43 <= 2280
 x_44 <= 810
 x_45 <= 2830
 x_46 <= 2140
 x_47 <= 2360
 x_48 <= 1920
 x_49 <= 1990
 x_50 <= 2890
 x_51 <= 3640
 x_52 <= 4700
 x_53 <= 3760
 x_54 <= 3480
 x_55 <= 2140
 x_56 <= 1610
 x_57 <= 2180
 x_58 <= 2990
 x_59 <= 2120
 x_60 <= 3070
 x_61 <= 2870
 x_62 <= 3760
 x_63 <= 2030
 x_64 <= 1340
 x_65 <= 1440
 x_66 <= 5080
 x_67 <= 2670
 x_68 <= 1840
 x_69 <= 5550
 x_70 <= 2040
 x_71 <= 2040
 x_72 <= 1420
 x_73 <= 1410
 x_74 <= 2020
 x_75 <= 2230
 x_76 <= 2810
 x_77 <= 2200
 x_78 <= 1420
 x_79 <= 1340
 x_80 <= 2000
 x_81 <= 7050
 x_82 <= 2410
 x_83 <= 2400
 x_84 <= 1280
 x_85 <= 1410
 x_86 <= 1520
 x_87 <= 2760
 x_88 <= 140
 x_89 <= 2140
 x_90 <= 3180
 x_91 <= 2320
 demand_constraint: x_1 <= 1363
 x_2 <= 1216
 x_3 <= 717
 x_4 <= 2650
 x_5 <= 667
 x_6 <= 381
 x_7 <= 798
 x_8 <= 129
 x_9 <= 1224
 x_10 <= 1193
 x_11 <= 627
 x_12 <= 279
 x_13 <= 1000
 x_14 <= 130
 x_15 <= 507
 x_16 <= 353
 x_17 <= 363
 x_18 <= 630
 x_19 <= 1528
 x_20 <= 1126
 x_21 <= 1851
 x_22 <= 1651
 x_23 <= 708
 x_24 <= 116
 x_25 <= 424
 x_26 <= 802
 x_27 <= 1251
 x_28 <= 710
 x_29 <= 1528
 x_30 <= 927
 x_31 <= 566
 x_32 <= 387
 x_33 <= 902
 x_34 <= 1344
 x_35 <= 255
 x_36 <= 250
 x_37 <= 669
 x_38 <= 443
 x_39 <= 514
 x_40 <= 402
 x_41 <= 371
 x_42 <= 1248
 x_43 <= 572
 x_44 <= 241
 x_45 <= 796
 x_46 <= 541
 x_47 <= 700
 x_48 <= 545
 x_49 <= 507
 x_50 <= 731
 x_51 <= 987
 x_52 <= 1135
 x_53 <= 948
 x_54 <= 924
 x_55 <= 562
 x_56 <= 432
 x_57 <= 559
 x_58 <= 823
 x_59 <= 619
 x_60 <= 758
 x_61 <= 778
 x_62 <= 931
 x_63 <= 574
 x_64 <= 354
 x_65 <= 395
 x_66 <= 1276
 x_67 <= 665
 x_68 <= 495
 x_69 <= 1450
 x_70 <= 605
 x_71 <= 582
 x_72 <= 405
 x_73 <= 415
 x_74 <= 495
 x_75 <= 608
 x_76 <= 773
 x_77 <= 654
 x_78 <= 365
 x_79 <= 340
 x_80 <= 493
 x_81 <= 1699
 x_82 <= 712
 x_83 <= 673
 x_84 <= 367
 x_85 <= 361
 x_86 <= 419
 x_87 <= 673
 x_88 <= 38
 x_89 <= 638
 x_90 <= 929
 x_91 <= 604
Generals
 x_1  x_2  x_3  x_4  x_5  x_6  x_7  x_8  x_9  x_10  x_11  x_12  x_13  x_14  
 x_15  x_16  x_17  x_18  x_19  x_20  x_21  x_22  x_23  x_24  x_25  x_26  
 x_27  x_28  x_29  x_30  x_31  x_32  x_33  x_34  x_35  x_36  x_37  x_38  
 x_39  x_40  x_41  x_42  x_43  x_44  x_45  x_46  x_47  x_48  x_49  x_50  
 x_51  x_52  x_53  x_54  x_55  x_56  x_57  x_58  x_59  x_60  x_61  x_62  
 x_63  x_64  x_65  x_66  x_67  x_68  x_69  x_70  x_71  x_72  x_73  x_74  
 x_75  x_76  x_77  x_78  x_79  x_80  x_81  x_82  x_83  x_84  x_85  x_86  
 x_87  x_88  x_89  x_90  x_91  
END

